     Program PWSCF v.6.2 starts on 18Sep2018 at 10:58: 0

     R & G space division:  proc/nbgrp/npool/nimage =       8
     Waiting for input...
     Reading input from standard input

     Current dimensions of program PWSCF are:
     Max number of different atomic species (ntypx) = 10
     Max number of k-points (npk) =  40000
     Max angular momentum in pseudopotentials (lmaxx) =  3

     IMPORTANT: XC functional enforced from input :
     Exchange-correlation      = VDW-DF ( 1  4  4  0 1 0)
     Any further DFT definition will be discarded
     Please, verify this is what you really want

     bravais-lattice index     =            2
     lattice parameter (alat)  =       9.9500  a.u.
     unit-cell volume          =     246.2687 (a.u.)^3
     number of atoms/cell      =            2
     number of atomic types    =            2
     number of electrons       =         8.00
     number of Kohn-Sham states=            8
     kinetic-energy cutoff     =      50.0000  Ry
     charge density cutoff     =     600.0000  Ry
     convergence threshold     =      1.0E-08
     mixing beta               =       0.7000
     number of iterations used =            8  plain     mixing
     Exchange-correlation      = VDW-DF ( 1  4  4  0 1 0)

     celldm(1)=   9.950000  celldm(2)=   0.000000  celldm(3)=   0.000000
     celldm(4)=   0.000000  celldm(5)=   0.000000  celldm(6)=   0.000000

     crystal axes: (cart. coord. in units of alat)
               a(1) = (  -0.500000   0.000000   0.500000 )
               a(2) = (   0.000000   0.500000   0.500000 )
               a(3) = (  -0.500000   0.500000   0.000000 )

     reciprocal axes: (cart. coord. in units 2 pi/alat)
               b(1) = ( -1.000000 -1.000000  1.000000 )
               b(2) = (  1.000000  1.000000  1.000000 )
               b(3) = ( -1.000000  1.000000 -1.000000 )

     PseudoPot. # 1 for P  read from file:
     /deac/thonhauserGrp/chakrad/calculations/atomandmolecule-qe6.2.1-i2012-C6modif/all_pbe_UPF_v1.5/p_pbe_v1.5.uspp.F.UPF
     MD5 check sum: eb82b2c351da08c5f5f8709277dc7ee5
     Pseudo is Ultrasoft + core correction, Zval =  5.0
     Generated by new atomic code, or converted to UPF format
     Using radial grid of  903 points,  6 beta functions with:
                l(1) =   0
                l(2) =   0
                l(3) =   1
                l(4) =   1
                l(5) =   2
                l(6) =   2
     Q(r) pseudized with  8 coefficients,  rinner =    1.300   1.300   1.300
                                                       1.300   1.300

     PseudoPot. # 2 for Al read from file:
     /deac/thonhauserGrp/chakrad/calculations/atomandmolecule-qe6.2.1-i2012-C6modif/all_pbe_UPF_v1.5/al_pbe_v1.uspp.F.UPF
     MD5 check sum: 0a6289f5291fc8f409219462bc851e1f
     Pseudo is Ultrasoft + core correction, Zval =  3.0
     Generated by new atomic code, or converted to UPF format
     Using radial grid of  893 points,  3 beta functions with:
                l(1) =   0
                l(2) =   1
                l(3) =   2
     Q(r) pseudized with  8 coefficients,  rinner =    0.900   0.900   0.900
                                                       0.900   0.900

     vdW kernel table read from file vdW_kernel_table
     MD5 check sum: cc9485f6209b1096fbef62427c856dab

     atomic species   valence    mass     pseudopotential
        P              5.00    31.00000     P ( 1.00)
        Al             3.00    27.00000     Al( 1.00)

     24 Sym. Ops. (no inversion) found

                                    s                        frac. trans.

      isym =  1     identity

 cryst.   s( 1) = (     1          0          0      )
                  (     0          1          0      )
                  (     0          0          1      )

 cart.    s( 1) = (  1.0000000  0.0000000  0.0000000 )
                  (  0.0000000  1.0000000  0.0000000 )
                  (  0.0000000  0.0000000  1.0000000 )

      isym =  2     180 deg rotation - cart. axis [0,0,1]

[...]

 cryst.   s( 9) = (     0          0         -1      )
                  (     0          1         -1      )
                  (     1          0         -1      )

 cart.    s( 9) = (  0.0000000  0.0000000  1.0000000 )
                  (  1.0000000  0.0000000  0.0000000 )
                  (  0.0000000  1.0000000  0.0000000 )

[...]

 cryst.   s(10) = (    -1          1          0      )
                  (    -1          0          0      )
                  (    -1          0          1      )

 cart.    s(10) = (  0.0000000  0.0000000  1.0000000 )
                  ( -1.0000000  0.0000000  0.0000000 )
                  (  0.0000000 -1.0000000  0.0000000 )

[...]

      isym = 12     120 deg rotation - cart. axis [-1,-1,1]

[...]

      isym = 13     inv. 180 deg rotation - cart. axis [1,1,0]

[...]

      isym = 24     inv.  90 deg rotation - cart. axis [1,0,0]

 cryst.   s(24) = (    -1          1          0      )
                  (    -1          0          1      )
                  (    -1          0          0      )

 cart.    s(24) = ( -1.0000000  0.0000000  0.0000000 )
                  (  0.0000000  0.0000000  1.0000000 )
                  (  0.0000000 -1.0000000  0.0000000 )

     point group T_d (-43m)
     there are  5 classes
     the character table:

       E     8C3   3C2   6S4   6s_d
A_1    1.00  1.00  1.00  1.00  1.00
A_2    1.00  1.00  1.00 -1.00 -1.00
E      2.00 -1.00  2.00  0.00  0.00
T_1    3.00  0.00 -1.00  1.00 -1.00
T_2    3.00  0.00 -1.00 -1.00  1.00

     the symmetry operations in each class and the name of the first element:

     E        1
          identity
     8C3      5    7    8    6   12    9   10   11
          120 deg rotation - cart. axis [-1,-1,-1]
     3C2      2    3    4
          180 deg rotation - cart. axis [0,0,1]
     6S4     15   16   20   19   23   24
          inv.  90 deg rotation - cart. axis [0,0,-1]
     6s_d    13   14   17   18   21   22
          inv. 180 deg rotation - cart. axis [1,1,0]

   Cartesian axes

     site n.     atom                  positions (alat units)
         1           Al  tau(   1) = (   0.0000000   0.0000000   0.0000000  )
         2           P   tau(   2) = (  -0.7500000   0.7500000   0.7500000  )

   Crystallographic axes

     site n.     atom                  positions (cryst. coord.)
         1           Al  tau(   1) = (  0.0000000  0.0000000  0.0000000  )
         2           P   tau(   2) = (  0.7500000  0.7500000  0.7500000  )

     number of k points=   120  gaussian smearing, width (Ry)=  0.0073
                       cart. coord. in units 2pi/alat
        k(    1) = (   0.0000000   0.0000000   0.0000000), wk =   0.0005926
        k(    2) = (  -0.0666667   0.0666667  -0.0666667), wk =   0.0047407
        k(    3) = (  -0.1333333   0.1333333  -0.1333333), wk =   0.0047407
        k(    4) = (  -0.2000000   0.2000000  -0.2000000), wk =   0.0047407
        k(    5) = (  -0.2666667   0.2666667  -0.2666667), wk =   0.0047407
        k(    6) = (  -0.3333333   0.3333333  -0.3333333), wk =   0.0047407
        k(    7) = (  -0.4000000   0.4000000  -0.4000000), wk =   0.0047407
        k(    8) = (  -0.4666667   0.4666667  -0.4666667), wk =   0.0047407
        k(    9) = (   0.0000000   0.1333333   0.0000000), wk =   0.0035556
        k(   10) = (  -0.0666667   0.2000000  -0.0666667), wk =   0.0142222
        k(   11) = (  -0.1333333   0.2666667  -0.1333333), wk =   0.0142222
        k(   12) = (  -0.2000000   0.3333333  -0.2000000), wk =   0.0142222
        k(   13) = (  -0.2666667   0.4000000  -0.2666667), wk =   0.0142222
        k(   14) = (  -0.3333333   0.4666667  -0.3333333), wk =   0.0142222
        k(   15) = (  -0.4000000   0.5333333  -0.4000000), wk =   0.0142222
        k(   16) = (   0.5333333  -0.4000000   0.5333333), wk =   0.0142222
        k(   17) = (   0.4666667  -0.3333333   0.4666667), wk =   0.0142222
        k(   18) = (   0.4000000  -0.2666667   0.4000000), wk =   0.0142222
        k(   19) = (   0.3333333  -0.2000000   0.3333333), wk =   0.0142222
        k(   20) = (   0.2666667  -0.1333333   0.2666667), wk =   0.0142222
        k(   21) = (   0.2000000  -0.0666667   0.2000000), wk =   0.0142222
        k(   22) = (   0.1333333   0.0000000   0.1333333), wk =   0.0071111
        k(   23) = (   0.0000000   0.2666667   0.0000000), wk =   0.0035556
        k(   24) = (  -0.0666667   0.3333333  -0.0666667), wk =   0.0142222
        k(   25) = (  -0.1333333   0.4000000  -0.1333333), wk =   0.0142222
        k(   26) = (  -0.2000000   0.4666667  -0.2000000), wk =   0.0142222
        k(   27) = (  -0.2666667   0.5333333  -0.2666667), wk =   0.0142222
        k(   28) = (  -0.3333333   0.6000000  -0.3333333), wk =   0.0142222
        k(   29) = (   0.6000000  -0.3333333   0.6000000), wk =   0.0142222
        k(   30) = (   0.5333333  -0.2666667   0.5333333), wk =   0.0142222
        k(   31) = (   0.4666667  -0.2000000   0.4666667), wk =   0.0142222
        k(   32) = (   0.4000000  -0.1333333   0.4000000), wk =   0.0142222
        k(   33) = (   0.3333333  -0.0666667   0.3333333), wk =   0.0142222
        k(   34) = (   0.2666667   0.0000000   0.2666667), wk =   0.0071111
        k(   35) = (   0.0000000   0.4000000   0.0000000), wk =   0.0035556
        k(   36) = (  -0.0666667   0.4666667  -0.0666667), wk =   0.0142222
        k(   37) = (  -0.1333333   0.5333333  -0.1333333), wk =   0.0142222
        k(   38) = (  -0.2000000   0.6000000  -0.2000000), wk =   0.0142222
        k(   39) = (  -0.2666667   0.6666667  -0.2666667), wk =   0.0142222
        k(   40) = (   0.6666667  -0.2666667   0.6666667), wk =   0.0142222
        k(   41) = (   0.6000000  -0.2000000   0.6000000), wk =   0.0142222
        k(   42) = (   0.5333333  -0.1333333   0.5333333), wk =   0.0142222
        k(   43) = (   0.4666667  -0.0666667   0.4666667), wk =   0.0142222
        k(   44) = (   0.4000000   0.0000000   0.4000000), wk =   0.0071111
        k(   45) = (   0.0000000   0.5333333   0.0000000), wk =   0.0035556
        k(   46) = (  -0.0666667   0.6000000  -0.0666667), wk =   0.0142222
        k(   47) = (  -0.1333333   0.6666667  -0.1333333), wk =   0.0142222
        k(   48) = (  -0.2000000   0.7333333  -0.2000000), wk =   0.0142222
        k(   49) = (   0.7333333  -0.2000000   0.7333333), wk =   0.0142222
        k(   50) = (   0.6666667  -0.1333333   0.6666667), wk =   0.0142222
        k(   51) = (   0.6000000  -0.0666667   0.6000000), wk =   0.0142222
        k(   52) = (   0.5333333  -0.0000000   0.5333333), wk =   0.0071111
        k(   53) = (   0.0000000   0.6666667   0.0000000), wk =   0.0035556
        k(   54) = (  -0.0666667   0.7333333  -0.0666667), wk =   0.0142222
        k(   55) = (  -0.1333333   0.8000000  -0.1333333), wk =   0.0142222
        k(   56) = (   0.8000000  -0.1333333   0.8000000), wk =   0.0142222
        k(   57) = (   0.7333333  -0.0666667   0.7333333), wk =   0.0142222
        k(   58) = (   0.6666667  -0.0000000   0.6666667), wk =   0.0071111
        k(   59) = (   0.0000000   0.8000000   0.0000000), wk =   0.0035556
        k(   60) = (  -0.0666667   0.8666667  -0.0666667), wk =   0.0142222
[...]
        k(  106) = (   0.6666667  -0.2666667   0.9333333), wk =   0.0284444
        k(  107) = (   0.6000000  -0.2000000   0.8666667), wk =   0.0284444
        k(  108) = (   0.5333333  -0.1333333   0.8000000), wk =   0.0284444
        k(  109) = (   0.4666667  -0.0666667   0.7333333), wk =   0.0284444
        k(  110) = (   0.4000000   0.0000000   0.6666667), wk =   0.0142222
        k(  111) = (   0.7333333  -0.2000000   1.0000000), wk =   0.0142222
        k(  112) = (   0.6666667  -0.1333333   0.9333333), wk =   0.0284444
        k(  113) = (   0.6000000  -0.0666667   0.8666667), wk =   0.0284444
        k(  114) = (   0.5333333   0.0000000   0.8000000), wk =   0.0142222
        k(  115) = (   0.7333333  -0.0666667   1.0000000), wk =   0.0142222
        k(  116) = (   0.6666667   0.0000000   0.9333333), wk =   0.0142222
        k(  117) = (   0.6000000  -0.2000000   1.0000000), wk =   0.0142222
        k(  118) = (   0.5333333  -0.1333333   0.9333333), wk =   0.0284444
        k(  119) = (   0.6000000  -0.0666667   1.0000000), wk =   0.0142222
        k(  120) = (   0.5333333  -0.0000000   0.9333333), wk =   0.0142222

                       cryst. coord.
        k(    1) = (   0.0000000   0.0000000   0.0000000), wk =   0.0005926
        k(    2) = (   0.0000000   0.0000000   0.0666667), wk =   0.0047407
        k(    3) = (   0.0000000   0.0000000   0.1333333), wk =   0.0047407
        k(    4) = (   0.0000000   0.0000000   0.2000000), wk =   0.0047407
        k(    5) = (   0.0000000   0.0000000   0.2666667), wk =   0.0047407
        k(    6) = (   0.0000000   0.0000000   0.3333333), wk =   0.0047407
        k(    7) = (   0.0000000   0.0000000   0.4000000), wk =   0.0047407
        k(    8) = (   0.0000000   0.0000000   0.4666667), wk =   0.0047407
        k(    9) = (   0.0000000   0.0666667   0.0666667), wk =   0.0035556
        k(   10) = (   0.0000000   0.0666667   0.1333333), wk =   0.0142222
        k(   11) = (   0.0000000   0.0666667   0.2000000), wk =   0.0142222
        k(   12) = (   0.0000000   0.0666667   0.2666667), wk =   0.0142222
        k(   13) = (   0.0000000   0.0666667   0.3333333), wk =   0.0142222
        k(   14) = (   0.0000000   0.0666667   0.4000000), wk =   0.0142222
        k(   15) = (   0.0000000   0.0666667   0.4666667), wk =   0.0142222
        k(   16) = (   0.0000000   0.0666667  -0.4666667), wk =   0.0142222
        k(   17) = (   0.0000000   0.0666667  -0.4000000), wk =   0.0142222
        k(   18) = (   0.0000000   0.0666667  -0.3333333), wk =   0.0142222
        k(   19) = (   0.0000000   0.0666667  -0.2666667), wk =   0.0142222
        k(   20) = (   0.0000000   0.0666667  -0.2000000), wk =   0.0142222
        k(   21) = (   0.0000000   0.0666667  -0.1333333), wk =   0.0142222
        k(   22) = (   0.0000000   0.0666667  -0.0666667), wk =   0.0071111
        k(   23) = (   0.0000000   0.1333333   0.1333333), wk =   0.0035556
        k(   24) = (   0.0000000   0.1333333   0.2000000), wk =   0.0142222
        k(   25) = (   0.0000000   0.1333333   0.2666667), wk =   0.0142222
        k(   26) = (   0.0000000   0.1333333   0.3333333), wk =   0.0142222
        k(   27) = (   0.0000000   0.1333333   0.4000000), wk =   0.0142222
        k(   28) = (   0.0000000   0.1333333   0.4666667), wk =   0.0142222
        k(   29) = (   0.0000000   0.1333333  -0.4666667), wk =   0.0142222
        k(   30) = (   0.0000000   0.1333333  -0.4000000), wk =   0.0142222
        k(   31) = (   0.0000000   0.1333333  -0.3333333), wk =   0.0142222
        k(   32) = (   0.0000000   0.1333333  -0.2666667), wk =   0.0142222
        k(   33) = (   0.0000000   0.1333333  -0.2000000), wk =   0.0142222
        k(   34) = (   0.0000000   0.1333333  -0.1333333), wk =   0.0071111
        k(   35) = (   0.0000000   0.2000000   0.2000000), wk =   0.0035556
        k(   36) = (   0.0000000   0.2000000   0.2666667), wk =   0.0142222
        k(   37) = (   0.0000000   0.2000000   0.3333333), wk =   0.0142222
        k(   38) = (   0.0000000   0.2000000   0.4000000), wk =   0.0142222
        k(   39) = (   0.0000000   0.2000000   0.4666667), wk =   0.0142222
        k(   40) = (   0.0000000   0.2000000  -0.4666667), wk =   0.0142222
        k(   41) = (   0.0000000   0.2000000  -0.4000000), wk =   0.0142222
        k(   42) = (   0.0000000   0.2000000  -0.3333333), wk =   0.0142222
        k(   43) = (   0.0000000   0.2000000  -0.2666667), wk =   0.0142222
        k(   44) = (   0.0000000   0.2000000  -0.2000000), wk =   0.0071111
        k(   45) = (   0.0000000   0.2666667   0.2666667), wk =   0.0035556
        k(   46) = (   0.0000000   0.2666667   0.3333333), wk =   0.0142222
        k(   47) = (   0.0000000   0.2666667   0.4000000), wk =   0.0142222
        k(   48) = (   0.0000000   0.2666667   0.4666667), wk =   0.0142222
        k(   49) = (   0.0000000   0.2666667  -0.4666667), wk =   0.0142222
        k(   50) = (   0.0000000   0.2666667  -0.4000000), wk =   0.0142222
        k(   51) = (   0.0000000   0.2666667  -0.3333333), wk =   0.0142222
        k(   52) = (   0.0000000   0.2666667  -0.2666667), wk =   0.0071111
        k(   53) = (   0.0000000   0.3333333   0.3333333), wk =   0.0035556
        k(   54) = (   0.0000000   0.3333333   0.4000000), wk =   0.0142222
        k(   55) = (   0.0000000   0.3333333   0.4666667), wk =   0.0142222
        k(   56) = (   0.0000000   0.3333333  -0.4666667), wk =   0.0142222
        k(   57) = (   0.0000000   0.3333333  -0.4000000), wk =   0.0142222
        k(   58) = (   0.0000000   0.3333333  -0.3333333), wk =   0.0071111
        k(   59) = (   0.0000000   0.4000000   0.4000000), wk =   0.0035556
        k(   60) = (   0.0000000   0.4000000   0.4666667), wk =   0.0142222
[...]
        k(  106) = (   0.1333333   0.3333333  -0.4666667), wk =   0.0284444
        k(  107) = (   0.1333333   0.3333333  -0.4000000), wk =   0.0284444
        k(  108) = (   0.1333333   0.3333333  -0.3333333), wk =   0.0284444
        k(  109) = (   0.1333333   0.3333333  -0.2666667), wk =   0.0284444
        k(  110) = (   0.1333333   0.3333333  -0.2000000), wk =   0.0142222
        k(  111) = (   0.1333333   0.4000000  -0.4666667), wk =   0.0142222
        k(  112) = (   0.1333333   0.4000000  -0.4000000), wk =   0.0284444
        k(  113) = (   0.1333333   0.4000000  -0.3333333), wk =   0.0284444
        k(  114) = (   0.1333333   0.4000000  -0.2666667), wk =   0.0142222
        k(  115) = (   0.1333333   0.4666667  -0.4000000), wk =   0.0142222
        k(  116) = (   0.1333333   0.4666667  -0.3333333), wk =   0.0142222
        k(  117) = (   0.2000000   0.4000000  -0.4000000), wk =   0.0142222
        k(  118) = (   0.2000000   0.4000000  -0.3333333), wk =   0.0284444
        k(  119) = (   0.2000000   0.4666667  -0.3333333), wk =   0.0142222
        k(  120) = (   0.2000000   0.4666667  -0.2666667), wk =   0.0142222

     Initial potential from superposition of free atoms

     starting charge    7.99737, renormalised to    8.00000

     %%%%%%%%%%%%%%%%%%%%%%%%%%%%%%%%%%%%%%%%%%%%%%%%%%%%%%%%%%%%%%%%%%%%%%%%
     %                                                                      %
     % You are using vdW-DF, which was implemented by the Thonhauser group. %
     % Please cite the following two papers that made this development      %
     % possible and the two reviews that describe the various versions:     %
     %                                                                      %
     %   T. Thonhauser et al., PRL 115, 136402 (2015).                      %
     %   T. Thonhauser et al., PRB 76, 125112 (2007).                       %
     %   K. Berland et al., Rep. Prog. Phys. 78, 066501 (2015).             %
     %   D.C. Langreth et al., J. Phys.: Condens. Matter 21, 084203 (2009). %
     %                                                                      %
     %                                                                      %
     % If you are calculating the stress with vdW-DF, please also cite:     %
     %                                                                      %
     %   R. Sabatini et al., J. Phys.: Condens. Matter 24, 424209 (2012).   %
     %                                                                      %
     %%%%%%%%%%%%%%%%%%%%%%%%%%%%%%%%%%%%%%%%%%%%%%%%%%%%%%%%%%%%%%%%%%%%%%%%

     Carrying out vdW-DF run using the following parameters:
     Nqs    =  20  Npoints =  1024  r_max =  100.000
     q_mesh =  0.00001000  0.04494208  0.09755937  0.15916263
               0.23128650  0.31572767  0.41458969  0.53033537
               0.66584808  0.82450364  1.01025438  1.22772762
               1.48234092  1.78043706  2.12944203  2.53805004
               3.01644009  3.57652955  4.23227104  5.00000000

     C6 coefficient =    323.95433324

[...]

     Non-local corr. energy    =       0.10673528 Ry

     Starting wfc are    8 randomized atomic wfcs

     Self-consistent Calculation

     iteration #  1     ecut=    50.00 Ry     beta= 0.70
     Davidson diagonalization with overlap
     ethr =  1.00E-02,  avg # of iterations =  4.1

[...]

     total energy              =     -22.55863238 Ry
     Harris-Foulkes estimate   =     -22.60964973 Ry
     estimated scf accuracy    <       0.11906400 Ry

[...]

     total energy              =     -22.58388558 Ry
     Harris-Foulkes estimate   =     -22.58388549 Ry
     estimated scf accuracy    <       0.00000051 Ry

     iteration #  6     ecut=    50.00 Ry     beta= 0.70
     Davidson diagonalization with overlap
     ethr =  6.39E-09,  avg # of iterations =  2.1

[...]

     C10 coefficient =   8184.67846940

     Non-local corr. energy    =       0.12008255 Ry

     End of self-consistent calculation

          k = 0.0000 0.0000 0.0000 (  1459 PWs)   bands (ev):

    -6.0261   6.0884   6.0884   6.0884  10.5521  10.9011  10.9011  10.9011

     occupation numbers
     1.0000   1.0000   1.0000   1.0000   0.0000   0.0000   0.0000   0.0000

          k =-0.0667 0.0667-0.0667 (  1456 PWs)   bands (ev):

[...]

          k =-0.2667 0.6667 0.0000 (  1476 PWs)   bands (ev):

[...]

          k = 0.5333-0.0000 0.9333 (  1466 PWs)   bands (ev):

    -3.2877   0.9242   2.5031   3.1576  10.4884  12.1548  12.9743  13.2002

     occupation numbers
     1.0000   1.0000   1.0000   1.0000   0.0000   0.0000   0.0000   0.0000

     the Fermi energy is     6.7602 ev

!    total energy              =     -22.58388571 Ry
     Harris-Foulkes estimate   =     -22.58388570 Ry
     estimated scf accuracy    <          8.8E-09 Ry

     The total energy is the sum of the following terms:

     one-electron contribution =       4.41384178 Ry
     hartree contribution      =       1.77142586 Ry
     xc contribution           =     -10.68439057 Ry
     ewald contribution        =     -18.08476278 Ry
     smearing contrib. (-TS)   =      -0.00000000 Ry

     convergence has been achieved in   6 iterations

     Writing output data file AlP-vdw-df-9.95.save

     General routines

     Parallel routines

   This run was terminated on:  10:58:11  18Sep2018

   JOB DONE.